n_res = 4;
rc = [ 0, 0, 0, 0 ];
n_tasks = 30;
d = [ 6, 5, 8, 8, 10, 10, 6, 2, 1, 7, 1, 2, 4, 2, 10, 8, 3, 4, 1, 2, 6, 6, 5, 8, 9, 6, 3, 4, 8, 8 ];
rr = [| 0, 0, 0, 0, 0, 0, 0, 0, 0, 0, 0, 0, 0, 0, 0, 0, 0, 0, 0, 0, 0, 0, 0, 0, 0, 0, 0, 0, 0, 0
      | 0, 0, 0, 0, 0, 0, 0, 0, 0, 0, 0, 0, 0, 0, 0, 0, 0, 0, 0, 0, 0, 0, 0, 0, 0, 0, 0, 0, 0, 0
      | 0, 0, 0, 0, 0, 0, 0, 0, 0, 0, 0, 0, 0, 0, 0, 0, 0, 0, 0, 0, 0, 0, 0, 0, 0, 0, 0, 0, 0, 0
      | 0, 0, 0, 0, 0, 0, 0, 0, 0, 0, 0, 0, 0, 0, 0, 0, 0, 0, 0, 0, 0, 0, 0, 0, 0, 0, 0, 0, 0, 0 |];
suc = [ { 4, 7, 10 },
       { 8, 15 },
       { 6, 17, 21 },
       { 5, 20, 22 },
       { 8, 9, 11 },
       { 14, 15, 16 },
       { 13, 16, 20 },
       { 12, 18, 19 },
       { 13, 18, 19 },
       { 11, 16, 21 },
       { 14, 18, 28 },
       { 17, 26, 27 },
       { 14, 17, 24 },
       { 23, 29 },
       { 20, 25, 26 },
       { 19, 22, 25 },
       { 23, 28 },
       { 26 },
       { 24 },
       { 27 },
       { 22, 23, 24 },
       { 27, 28 },
       { 25 },
       { 29 },
       { 30 },
       { 30 },
       { 29, 30 },
       {  },
       {  },
       {  } ];
